# Solution for model GasLib-40
# Objective value = 2.9900746031393926e+01
loadshed[innode_1] 0
loadshed[innode_2] 0
loadshed[innode_3] 0
loadshed[innode_4] 0
loadshed[innode_5] 0
loadshed[innode_6] 0
loadshed[innode_7] 0
loadshed[innode_8] 0
loadshed[source_1] -1.0770827002219208e-01
loadshed[source_2] 5.2949975229098389e-02
loadshed[source_3] 2.4389545396373136e-01
loadshed[sink_1] 0
loadshed[sink_2] 0
loadshed[sink_3] 0
loadshed[sink_4] 0
loadshed[sink_5] 0
loadshed[sink_6] 0
loadshed[sink_7] 0
loadshed[sink_8] 0
loadshed[sink_9] 0
loadshed[sink_10] 0
loadshed[sink_11] 0
loadshed[sink_12] 1
loadshed[sink_13] 0
loadshed[sink_14] 0
loadshed[sink_15] 0
loadshed[sink_16] 0
loadshed[sink_17] 0
loadshed[sink_18] 0
loadshed[sink_19] 0
loadshed[sink_20] 0
loadshed[sink_21] 8.2832587198332275e-01
loadshed[sink_22] 0
loadshed[sink_23] 0
loadshed[sink_24] 0
loadshed[sink_25] 0
loadshed[sink_26] 0
loadshed[sink_27] 0
loadshed[sink_28] 0
loadshed[sink_29] 0
flow[source_1,sink_3] 175.11790810455
flow[innode_1,sink_16] 1.6354166666666970e+01
flow[innode_6,sink_13] -5.0536110452470240e+00
flow[sink_13,sink_14] -2.1407777711913692e+01
flow[sink_14,sink_10] -3.7761944378580360e+01
flow[sink_25,sink_26] 2.1541175396860979e+02
flow[sink_26,sink_9] 8.1770833333333655e+01
flow[sink_9,sink_18] 6.5416666666666671e+01
flow[sink_26,sink_4] 1.1728675396860933e+02
flow[sink_4,sink_20] 1.6354166666668277e+01
flow[sink_18,sink_6] 4.9062500000000313e+01
flow[sink_25,innode_8] -1.4240957477121364e+02
flow[sink_6,sink_7] 0
flow[sink_6,sink_22] 3.2708333333333641e+01
flow[sink_7,sink_24] 1.9161753968606074e+01
flow[sink_22,sink_1] 1.6354166666666970e+01
flow[sink_24,sink_21] 2.80758730193941
flow[sink_21,sink_12] 0
flow[sink_7,sink_5] -3.5515920635272742e+01
flow[sink_5,sink_17] -5.1870087301939407e+01
flow[sink_17,sink_4] -8.4578420635274412e+01
flow[sink_17,sink_8] 1.6354166666668334e+01
flow[sink_3,sink_23] 16.3541666666697
flow[sink_8,sink_20] 0
flow[sink_25,sink_20] 0
flow[sink_25,sink_15] -8.4302734818815509e+01
flow[sink_15,sink_29] -56.8748572852144
flow[sink_29,sink_28] 1.6354166666667879e+01
flow[sink_29,sink_2] 6.0136210866934462e+01
flow[sink_2,sink_15] 43.7820442002678
flow[sink_29,innode_7] -1.4971940148548316e+02
flow[innode_4,sink_19] 46.3499360843686
flow[sink_19,innode_3] 4.2369962370966832e+01
flow[innode_4,innode_5] 7.3182841627545670e+01
flow[sink_27,innode_5] -7.3182841627545670e+01
flow[sink_27,sink_19] 56.828674960879
flow[sink_10,sink_11] 3.2708333333333641e+01
flow[sink_10,innode_2] -4.4454482007613834e+01
flow[sink_10,innode_3] -4.2369962370966832e+01
flow[innode_6,sink_25] 5.0536110452470240e+00
flow[sink_11,innode_1] 1.6354166666666970e+01
flow[sink_19,innode_2] 4.4454482007613834e+01
flow[source_3,innode_4] 1.1953277771191426e+02
flow[source_2,innode_7] 1.4971940148548316e+02
flow[sink_3,innode_8] 1.4240957477121364e+02
pressure[innode_1] 7.6634191704182129e+01
pressure[innode_2] 7.9135495988911970e+01
pressure[innode_3] 7.9041672505119223e+01
pressure[innode_4] 81.01325
pressure[innode_5] 8.0962910982585385e+01
pressure[innode_6] 7.4933635311051461e+01
pressure[innode_7] 81.01325
pressure[innode_8] 8.0427897730672157e+01
pressure[source_1] 81.01325
pressure[source_2] 81.01325
pressure[source_3] 81.01325
pressure[sink_1] 4.9089954149792973e+01
pressure[sink_2] 7.5485524446254985e+01
pressure[sink_3] 8.0427897730672157e+01
pressure[sink_4] 4.4850170532110653e+01
pressure[sink_5] 3.7753915607916980e+01
pressure[sink_6] 5.1191031760180351e+01
pressure[sink_7] 2.2983121950616656e+01
pressure[sink_8] 4.1000776988738053e+01
pressure[sink_9] 5.4868116563638637e+01
pressure[sink_10] 7.6785893011785674e+01
pressure[sink_11] 7.6634191704182129e+01
pressure[sink_12] 1.01325
pressure[sink_13] 7.4961495024207039e+01
pressure[sink_14] 7.4999806065961963e+01
pressure[sink_15] 7.5342585721348229e+01
pressure[sink_16] 7.5612541869364449e+01
pressure[sink_17] 4.1617862184151676e+01
pressure[sink_18] 5.2501146588439980e+01
pressure[sink_19] 7.9135495988911970e+01
pressure[sink_20] 4.3650352822719078e+01
pressure[sink_21] 1.01325
pressure[sink_22] 5.0153723292147987e+01
pressure[sink_23] 8.0263179719012371e+01
pressure[sink_24] 1.0443414208092725e+00
pressure[sink_25] 7.4933635311051461e+01
pressure[sink_26] 5.9762311983349989e+01
pressure[sink_27] 80.3556286244279
pressure[sink_28] 7.6713560261727608e+01
pressure[sink_29] 7.7008842535344783e+01
interdiction[source_1,sink_3] 0
interdiction[innode_1,sink_16] 0
interdiction[innode_6,sink_13] 0
interdiction[sink_13,sink_14] 0
interdiction[sink_14,sink_10] 0
interdiction[sink_25,sink_26] 0
interdiction[sink_26,sink_9] 0
interdiction[sink_9,sink_18] 0
interdiction[sink_26,sink_4] 0
interdiction[sink_4,sink_20] 0
interdiction[sink_18,sink_6] 0
interdiction[sink_25,innode_8] 0
interdiction[sink_6,sink_7] 1
interdiction[sink_6,sink_22] 0
interdiction[sink_7,sink_24] 0
interdiction[sink_22,sink_1] 0
interdiction[sink_24,sink_21] 0
interdiction[sink_21,sink_12] 0
interdiction[sink_7,sink_5] 0
interdiction[sink_5,sink_17] 0
interdiction[sink_17,sink_4] 0
interdiction[sink_17,sink_8] 0
interdiction[sink_3,sink_23] 0
interdiction[sink_8,sink_20] 1
interdiction[sink_25,sink_20] 1
interdiction[sink_25,sink_15] 0
interdiction[sink_15,sink_29] 0
interdiction[sink_29,sink_28] 0
interdiction[sink_29,sink_2] 0
interdiction[sink_2,sink_15] 0
interdiction[sink_29,innode_7] 0
interdiction[innode_4,sink_19] 0
interdiction[sink_19,innode_3] 0
interdiction[innode_4,innode_5] 0
interdiction[sink_27,innode_5] 0
interdiction[sink_27,sink_19] 0
interdiction[sink_10,sink_11] 0
interdiction[sink_10,innode_2] 0
interdiction[sink_10,innode_3] 0
interdiction[innode_6,sink_25] 0
interdiction[sink_11,innode_1] 0
interdiction[sink_19,innode_2] 0
interdiction[source_3,innode_4] 0
interdiction[source_2,innode_7] 0
interdiction[sink_3,innode_8] 0
WCcheckFlow[source_1,sink_3] 39
WCcheckFlow[innode_1,sink_16] 1
WCcheckFlow[innode_6,sink_13] 13
WCcheckFlow[sink_13,sink_14] 12
WCcheckFlow[sink_14,sink_10] 11
WCcheckFlow[sink_25,sink_26] 15
WCcheckFlow[sink_26,sink_9] 5
WCcheckFlow[sink_9,sink_18] 4
WCcheckFlow[sink_26,sink_4] 9
WCcheckFlow[sink_4,sink_20] 1
WCcheckFlow[sink_18,sink_6] 3
WCcheckFlow[sink_25,innode_8] -36
WCcheckFlow[sink_6,sink_7] 0
WCcheckFlow[sink_6,sink_22] 2
WCcheckFlow[sink_7,sink_24] 3
WCcheckFlow[sink_22,sink_1] 1
WCcheckFlow[sink_24,sink_21] 2
WCcheckFlow[sink_21,sink_12] 1
WCcheckFlow[sink_7,sink_5] -4
WCcheckFlow[sink_5,sink_17] -5
WCcheckFlow[sink_17,sink_4] -7
WCcheckFlow[sink_17,sink_8] 1
WCcheckFlow[sink_3,sink_23] 1
WCcheckFlow[sink_8,sink_20] 0
WCcheckFlow[sink_25,sink_20] 0
WCcheckFlow[sink_25,sink_15] 6
WCcheckFlow[sink_15,sink_29] 5
WCcheckFlow[sink_29,sink_28] 1
WCcheckFlow[sink_29,sink_2] 1
WCcheckFlow[sink_2,sink_15] 0
WCcheckFlow[sink_29,innode_7] 2
WCcheckFlow[innode_4,sink_19] -4
WCcheckFlow[sink_19,innode_3] -5
WCcheckFlow[innode_4,innode_5] 2
WCcheckFlow[sink_27,innode_5] -1
WCcheckFlow[sink_27,sink_19] 0
WCcheckFlow[sink_10,sink_11] 3
WCcheckFlow[sink_10,innode_2] 1
WCcheckFlow[sink_10,innode_3] 6
WCcheckFlow[innode_6,sink_25] -14
WCcheckFlow[sink_11,innode_1] 2
WCcheckFlow[sink_19,innode_2] 0
WCcheckFlow[source_3,innode_4] -1
WCcheckFlow[source_2,innode_7] -1
WCcheckFlow[sink_3,innode_8] 37
